50
    1   791   781
    2   752   742
    3   952   942
    4   452   442
    5   866   856
    6   978   968
    7   935   925
    8   178   168
    9   724   714
   10   387   377
   11   773   763
   12   367   357
   13    85    75
   14   227   217
   15   551   541
   16   929   919
   17   829   819
   18   704   694
   19   822   812
   20   144   134
   21   835   825
   22   497   487
   23   247   237
   24   137   127
   25   820   810
   26   309   299
   27   896   886
   28   440   430
   29   316   306
   30   369   359
   31   856   846
   32  1010  1000
   33   717   707
   34    40    30
   35   628   618
   36   248   238
   37   689   679
   38   396   386
   39   218   208
   40   679   669
   41    61    51
   42   763   753
   43   963   953
   44    69    59
   45   748   738
   46   150   140
   47  1010  1000
   48   606   596
   49   692   682
   50    67    57
4570
